c description: Perfect Matching Principle on 
c generator: CNFgen (0.9.0)
c copyright: (C) 2012-2020 Massimo Lauria <massimo.lauria@uniroma1.it>
c url: https://massimolauria.net/cnfgen
c
p cnf 60 244
-1 -2 0
-1 -3 0
-2 -3 0
1 2 3 0
-4 -5 0
-4 -6 0
-4 -7 0
-5 -6 0
-5 -7 0
-6 -7 0
4 5 6 7 0
-8 -9 0
-8 -10 0
-9 -10 0
8 9 10 0
-11 -12 0
11 12 0
-13 -14 0
-13 -15 0
-13 -16 0
-14 -15 0
-14 -16 0
-15 -16 0
13 14 15 16 0
-13 -17 0
-13 -18 0
-13 -19 0
-13 -20 0
-17 -18 0
-17 -19 0
-17 -20 0
-18 -19 0
-18 -20 0
-19 -20 0
13 17 18 19 20 0
-17 -21 0
-17 -22 0
-21 -22 0
17 21 22 0
-8 -18 0
-8 -23 0
-8 -24 0
-18 -23 0
-18 -24 0
-23 -24 0
8 18 23 24 0
-1 -25 0
-1 -26 0
-1 -27 0
-25 -26 0
-25 -27 0
-26 -27 0
1 25 26 27 0
-23 -25 0
-23 -28 0
-23 -29 0
-23 -30 0
-25 -28 0
-25 -29 0
-25 -30 0
-28 -29 0
-28 -30 0
-29 -30 0
23 25 28 29 30 0
-9 -31 0
-9 -32 0
-31 -32 0
9 31 32 0
-14 -33 0
-14 -34 0
-14 -35 0
-33 -34 0
-33 -35 0
-34 -35 0
14 33 34 35 0
-31 -36 0
31 36 0
-11 -15 0
-11 -37 0
-11 -38 0
-15 -37 0
-15 -38 0
-37 -38 0
11 15 37 38 0
-19 -28 0
-19 -33 0
-19 -39 0
-19 -40 0
-28 -33 0
-28 -39 0
-28 -40 0
-33 -39 0
-33 -40 0
-39 -40 0
19 28 33 39 40 0
-41 -42 0
-41 -43 0
-41 -44 0
-42 -43 0
-42 -44 0
-43 -44 0
41 42 43 44 0
-16 -26 0
-16 -29 0
-16 -37 0
-16 -41 0
-16 -45 0
-16 -46 0
-26 -29 0
-26 -37 0
-26 -41 0
-26 -45 0
-26 -46 0
-29 -37 0
-29 -41 0
-29 -45 0
-29 -46 0
-37 -41 0
-37 -45 0
-37 -46 0
-41 -45 0
-41 -46 0
-45 -46 0
16 26 29 37 41 45 46 0
-4 -10 0
-4 -21 0
-4 -36 0
-4 -47 0
-4 -48 0
-10 -21 0
-10 -36 0
-10 -47 0
-10 -48 0
-21 -36 0
-21 -47 0
-21 -48 0
-36 -47 0
-36 -48 0
-47 -48 0
4 10 21 36 47 48 0
-38 -47 0
-38 -49 0
-47 -49 0
38 47 49 0
-2 -5 0
-2 -39 0
-5 -39 0
2 5 39 0
-3 -6 0
-3 -20 0
-3 -34 0
-3 -48 0
-3 -50 0
-3 -51 0
-3 -52 0
-3 -53 0
-6 -20 0
-6 -34 0
-6 -48 0
-6 -50 0
-6 -51 0
-6 -52 0
-6 -53 0
-20 -34 0
-20 -48 0
-20 -50 0
-20 -51 0
-20 -52 0
-20 -53 0
-34 -48 0
-34 -50 0
-34 -51 0
-34 -52 0
-34 -53 0
-48 -50 0
-48 -51 0
-48 -52 0
-48 -53 0
-50 -51 0
-50 -52 0
-50 -53 0
-51 -52 0
-51 -53 0
-52 -53 0
3 6 20 34 48 50 51 52 53 0
-30 -32 0
-30 -54 0
-32 -54 0
30 32 54 0
-24 -55 0
-24 -56 0
-55 -56 0
24 55 56 0
-12 -35 0
-12 -57 0
-12 -58 0
-12 -59 0
-35 -57 0
-35 -58 0
-35 -59 0
-57 -58 0
-57 -59 0
-58 -59 0
12 35 57 58 59 0
-27 -55 0
27 55 0
-42 -45 0
-42 -50 0
-45 -50 0
42 45 50 0
-43 -46 0
-43 -49 0
-43 -51 0
-43 -57 0
-43 -60 0
-46 -49 0
-46 -51 0
-46 -57 0
-46 -60 0
-49 -51 0
-49 -57 0
-49 -60 0
-51 -57 0
-51 -60 0
-57 -60 0
43 46 49 51 57 60 0
-44 -52 0
-44 -54 0
-52 -54 0
44 52 54 0
-53 -56 0
-53 -58 0
-53 -60 0
-56 -58 0
-56 -60 0
-58 -60 0
53 56 58 60 0
-7 -22 0
-7 -40 0
-7 -59 0
-22 -40 0
-22 -59 0
-40 -59 0
7 22 40 59 0